21° run output:
{
    "Function": "ClusterB500.tsp",
    "Problem dimension": [
        187,
        223,
        469,
        192,
        484,
        304,
        483,
        23,
        48,
        296,
        195,
        235,
        202,
        453,
        107,
        350,
        133,
        428,
        257,
        152,
        120,
        416,
        488,
        129,
        123,
        474,
        298,
        380,
        65,
        303,
        208,
        216,
        394,
        445,
        15,
        38,
        498,
        404,
        182,
        1,
        400,
        310,
        168,
        139,
        369,
        124,
        229,
        293,
        28,
        173,
        203,
        174,
        351,
        479,
        254,
        315,
        294,
        346,
        189,
        388,
        45,
        93,
        135,
        209,
        327,
        237,
        98,
        234,
        99,
        329,
        73,
        88,
        458,
        165,
        243,
        332,
        372,
        185,
        134,
        438,
        373,
        422,
        164,
        32,
        244,
        406,
        163,
        19,
        444,
        75,
        70,
        113,
        382,
        426,
        307,
        226,
        452,
        144,
        213,
        7,
        137,
        397,
        401,
        63,
        319,
        222,
        260,
        206,
        429,
        457,
        180,
        51,
        141,
        200,
        403,
        338,
        281,
        109,
        424,
        267,
        142,
        36,
        10,
        104,
        459,
        489,
        43,
        178,
        201,
        125,
        138,
        499,
        361,
        292,
        265,
        136,
        176,
        395,
        147,
        306,
        199,
        161,
        339,
        82,
        342,
        398,
        127,
        497,
        122,
        54,
        162,
        478,
        128,
        194,
        323,
        357,
        170,
        322,
        287,
        228,
        60,
        76,
        247,
        285,
        309,
        299,
        421,
        80,
        52,
        349,
        455,
        386,
        166,
        347,
        42,
        333,
        258,
        283,
        407,
        94,
        44,
        467,
        126,
        485,
        119,
        210,
        348,
        376,
        391,
        6,
        324,
        149,
        494,
        269,
        470,
        472,
        466,
        427,
        252,
        240,
        313,
        56,
        169,
        12,
        288,
        264,
        3,
        220,
        301,
        396,
        359,
        253,
        481,
        22,
        68,
        188,
        186,
        108,
        112,
        302,
        214,
        58,
        86,
        46,
        95,
        268,
        263,
        179,
        341,
        225,
        461,
        413,
        153,
        456,
        21,
        321,
        284,
        49,
        212,
        2,
        150,
        5,
        493,
        316,
        91,
        435,
        468,
        437,
        272,
        491,
        190,
        295,
        35,
        204,
        246,
        432,
        231,
        59,
        18,
        425,
        312,
        250,
        270,
        433,
        224,
        171,
        121,
        286,
        378,
        325,
        446,
        34,
        482,
        241,
        449,
        193,
        78,
        381,
        101,
        314,
        239,
        87,
        475,
        131,
        390,
        172,
        356,
        155,
        274,
        360,
        77,
        236,
        158,
        377,
        25,
        362,
        434,
        365,
        423,
        256,
        280,
        308,
        383,
        146,
        196,
        219,
        442,
        232,
        335,
        353,
        61,
        157,
        24,
        318,
        31,
        492,
        277,
        410,
        143,
        408,
        282,
        118,
        465,
        47,
        37,
        439,
        441,
        67,
        343,
        33,
        454,
        177,
        106,
        66,
        154,
        366,
        117,
        248,
        448,
        417,
        476,
        328,
        340,
        496,
        215,
        57,
        399,
        11,
        30,
        330,
        151,
        375,
        184,
        266,
        393,
        368,
        430,
        462,
        259,
        227,
        74,
        336,
        181,
        39,
        255,
        273,
        132,
        160,
        111,
        115,
        0,
        358,
        385,
        207,
        55,
        205,
        443,
        352,
        156,
        334,
        242,
        279,
        105,
        26,
        90,
        290,
        276,
        103,
        84,
        64,
        148,
        291,
        17,
        337,
        20,
        344,
        450,
        490,
        300,
        436,
        363,
        159,
        420,
        140,
        233,
        463,
        27,
        218,
        412,
        405,
        331,
        230,
        419,
        477,
        79,
        415,
        262,
        460,
        431,
        297,
        275,
        72,
        221,
        379,
        167,
        409,
        9,
        145,
        211,
        175,
        249,
        261,
        464,
        384,
        411,
        238,
        41,
        271,
        191,
        289,
        100,
        486,
        8,
        13,
        81,
        440,
        14,
        355,
        16,
        83,
        326,
        245,
        110,
        305,
        114,
        367,
        71,
        217,
        92,
        480,
        389,
        402,
        69,
        414,
        53,
        487,
        130,
        370,
        251,
        50,
        447,
        29,
        97,
        198,
        62,
        85,
        387,
        392,
        374,
        116,
        40,
        96,
        354,
        345,
        102,
        471,
        418,
        317,
        495,
        473,
        4,
        364,
        183,
        371,
        320,
        451,
        311,
        89,
        197,
        278
    ],
    "Global Optimum": 0,
    "Algorithm": "Genetic algorithm",
    "Parameters": {
        "population": 30,
        "offspring": 30,
        "mutation probability": 0.002,
        "crossover probability": 0.9
    },
    "Fitness": 547258,
    "Solution": [
        187,
        223,
        469,
        192,
        484,
        304,
        483,
        23,
        48,
        296,
        195,
        235,
        202,
        453,
        107,
        350,
        133,
        428,
        257,
        152,
        120,
        416,
        488,
        129,
        123,
        474,
        298,
        380,
        65,
        303,
        208,
        216,
        394,
        445,
        15,
        38,
        498,
        404,
        182,
        1,
        400,
        310,
        168,
        139,
        369,
        124,
        229,
        293,
        28,
        173,
        203,
        174,
        351,
        479,
        254,
        315,
        294,
        346,
        189,
        388,
        45,
        93,
        135,
        209,
        327,
        237,
        98,
        234,
        99,
        329,
        73,
        88,
        458,
        165,
        243,
        332,
        372,
        185,
        134,
        438,
        373,
        422,
        164,
        32,
        244,
        406,
        163,
        19,
        444,
        75,
        70,
        113,
        382,
        426,
        307,
        226,
        452,
        144,
        213,
        7,
        137,
        397,
        401,
        63,
        319,
        222,
        260,
        206,
        429,
        457,
        180,
        51,
        141,
        200,
        403,
        338,
        281,
        109,
        424,
        267,
        142,
        36,
        10,
        104,
        459,
        489,
        43,
        178,
        201,
        125,
        138,
        499,
        361,
        292,
        265,
        136,
        176,
        395,
        147,
        306,
        199,
        161,
        339,
        82,
        342,
        398,
        127,
        497,
        122,
        54,
        162,
        478,
        128,
        194,
        323,
        357,
        170,
        322,
        287,
        228,
        60,
        76,
        247,
        285,
        309,
        299,
        421,
        80,
        52,
        349,
        455,
        386,
        166,
        347,
        42,
        333,
        258,
        283,
        407,
        94,
        44,
        467,
        126,
        485,
        119,
        210,
        348,
        376,
        391,
        6,
        324,
        149,
        494,
        269,
        470,
        472,
        466,
        427,
        252,
        240,
        313,
        56,
        169,
        12,
        288,
        264,
        3,
        220,
        301,
        396,
        359,
        253,
        481,
        22,
        68,
        188,
        186,
        108,
        112,
        302,
        214,
        58,
        86,
        46,
        95,
        268,
        263,
        179,
        341,
        225,
        461,
        413,
        153,
        456,
        21,
        321,
        284,
        49,
        212,
        2,
        150,
        5,
        493,
        316,
        91,
        435,
        468,
        437,
        272,
        491,
        190,
        295,
        35,
        204,
        246,
        432,
        231,
        59,
        18,
        425,
        312,
        250,
        270,
        433,
        224,
        171,
        121,
        286,
        378,
        325,
        446,
        34,
        482,
        241,
        449,
        193,
        78,
        381,
        101,
        314,
        239,
        87,
        475,
        131,
        390,
        172,
        356,
        155,
        274,
        360,
        77,
        236,
        158,
        377,
        25,
        362,
        434,
        365,
        423,
        256,
        280,
        308,
        383,
        146,
        196,
        219,
        442,
        232,
        335,
        353,
        61,
        157,
        24,
        318,
        31,
        492,
        277,
        410,
        143,
        408,
        282,
        118,
        465,
        47,
        37,
        439,
        441,
        67,
        343,
        33,
        454,
        177,
        106,
        66,
        154,
        366,
        117,
        248,
        448,
        417,
        476,
        328,
        340,
        496,
        215,
        57,
        399,
        11,
        30,
        330,
        151,
        375,
        184,
        266,
        393,
        368,
        430,
        462,
        259,
        227,
        74,
        336,
        181,
        39,
        255,
        273,
        132,
        160,
        111,
        115,
        0,
        358,
        385,
        207,
        55,
        205,
        443,
        352,
        156,
        334,
        242,
        279,
        105,
        26,
        90,
        290,
        276,
        103,
        84,
        64,
        148,
        291,
        17,
        337,
        20,
        344,
        450,
        490,
        300,
        436,
        363,
        159,
        420,
        140,
        233,
        463,
        27,
        218,
        412,
        405,
        331,
        230,
        419,
        477,
        79,
        415,
        262,
        460,
        431,
        297,
        275,
        72,
        221,
        379,
        167,
        409,
        9,
        145,
        211,
        175,
        249,
        261,
        464,
        384,
        411,
        238,
        41,
        271,
        191,
        289,
        100,
        486,
        8,
        13,
        81,
        440,
        14,
        355,
        16,
        83,
        326,
        245,
        110,
        305,
        114,
        367,
        71,
        217,
        92,
        480,
        389,
        402,
        69,
        414,
        53,
        487,
        130,
        370,
        251,
        50,
        447,
        29,
        97,
        198,
        62,
        85,
        387,
        392,
        374,
        116,
        40,
        96,
        354,
        345,
        102,
        471,
        418,
        317,
        495,
        473,
        4,
        364,
        183,
        371,
        320,
        451,
        311,
        89,
        197,
        278
    ],
    "Nb of functions evaluations": 400020,
    "Computational time in seconds": 1773.3559007644653,
    "Stopping criterion in evaluations": 400000
}